set VV := 0 1 2 3 4 5 6 7 8 9 10 11 12 13 14 15 16 17 18 19 ;
set VS := 0 1 2 3 4 5 6 7 8 9 10 11 12 13 14 15 16 17 18 19 20 21 22 23 24 25 26 27 28 29 30 31 32 33 34 35 36 37 38 39 40 41 42 43 44 ;
param cv := 
0 18
1 17
2 10
3 24
4 22
5 17
6 17
7 16
8 16
9 17
10 24
11 15
12 21
13 17
14 21
15 24
16 20
17 19
18 12
19 21
;
param cs := 
0 22
1 36
2 31
3 37
4 30
5 40
6 29
7 27
8 30
9 36
10 26
11 34
12 35
13 38
14 37
15 21
16 33
17 20
18 37
19 39
20 30
21 34
22 39
23 29
24 23
25 32
26 28
27 34
28 28
29 32
30 23
31 22
32 20
33 29
34 39
35 33
36 25
37 27
38 30
39 39
40 26
41 29
42 21
43 23
44 24
;
param bv:	 0 1 2 3 4 5 6 7 8 9 10 11 12 13 14 15 16 17 18 19 := 
		0 0 0 0 0 0 0 0 16 0 0 0 0 0 0 14 0 0 11 0 0 
		1 0 0 0 20 0 0 0 18 0 0 0 0 0 0 0 0 0 0 0 0 
		2 0 0 0 0 0 0 0 0 0 0 0 0 11 0 0 0 0 0 16 0 
		3 0 0 0 0 0 0 0 23 0 0 0 0 0 0 0 0 0 21 0 15 
		4 0 0 0 0 0 0 20 0 0 17 0 0 25 0 0 0 0 0 0 0 
		5 0 0 0 0 0 0 0 0 0 0 17 0 0 0 0 11 25 13 0 18 
		6 0 0 0 0 0 0 0 0 0 0 0 0 0 0 0 0 0 0 0 0 
		7 0 0 0 0 0 0 0 0 0 0 0 0 0 0 0 0 0 0 0 0 
		8 0 0 0 0 0 0 0 0 0 13 0 0 0 13 0 12 0 0 0 0 
		9 0 0 0 0 0 0 0 0 0 0 0 0 0 12 0 0 0 0 0 0 
		10 0 0 0 0 0 0 0 0 0 0 0 0 0 0 0 0 0 0 0 13 
		11 0 0 0 0 0 0 0 0 0 0 0 0 0 0 0 0 0 0 0 10 
		12 0 0 0 0 0 0 0 0 0 0 0 0 0 20 0 13 0 0 0 0 
		13 0 0 0 0 0 0 0 0 0 0 0 0 0 0 0 0 0 0 0 0 
		14 0 0 0 0 0 0 0 0 0 0 0 0 0 0 0 0 0 0 0 0 
		15 0 0 0 0 0 0 0 0 0 0 0 0 0 0 0 0 0 0 0 0 
		16 0 0 0 0 0 0 0 0 0 0 0 0 0 0 0 0 0 24 0 0 
		17 0 0 0 0 0 0 0 0 0 0 0 0 0 0 0 0 0 0 0 0 
		18 0 0 0 0 0 0 0 0 0 0 0 0 0 0 0 0 0 0 0 0 
		19 0 0 0 0 0 0 0 0 0 0 0 0 0 0 0 0 0 0 0 0 
;
param bs:	 0 1 2 3 4 5 6 7 8 9 10 11 12 13 14 15 16 17 18 19 20 21 22 23 24 25 26 27 28 29 30 31 32 33 34 35 36 37 38 39 40 41 42 43 44 := 
		0 0 0 30 0 0 0 0 0 0 25 22 0 0 0 0 0 30 0 0 32 0 23 0 0 0 0 0 0 0 0 0 0 20 0 0 0 0 0 0 0 0 0 0 0 0 
		1 0 0 0 0 0 0 26 0 0 0 0 0 0 0 0 0 0 40 25 0 0 32 0 0 0 0 0 0 0 0 0 0 0 0 25 0 0 0 0 0 0 0 0 0 21 
		2 30 0 0 0 37 0 0 0 0 0 0 34 0 0 0 0 0 0 0 0 34 0 0 0 0 0 0 0 0 34 0 0 0 0 0 0 0 0 0 0 0 29 0 25 0 
		3 0 0 0 0 0 0 0 0 0 25 0 0 0 39 0 30 0 0 0 0 0 0 0 0 30 20 0 0 0 0 23 0 0 0 0 0 0 0 0 0 0 0 33 0 0 
		4 0 0 37 0 0 0 38 0 0 0 0 0 0 0 0 0 0 0 0 0 0 0 0 0 0 0 32 0 0 0 0 0 0 0 0 0 0 0 0 0 36 0 0 0 0 
		5 0 0 0 0 0 0 0 0 0 0 0 0 0 0 26 0 0 0 0 0 0 0 0 0 0 0 0 0 0 0 0 0 0 0 0 0 0 0 0 32 0 0 0 0 0 
		6 0 26 0 0 38 0 0 0 0 0 0 0 0 0 0 0 0 0 0 22 0 20 0 0 0 0 0 0 0 0 0 0 0 0 0 0 0 0 0 0 0 0 0 24 0 
		7 0 0 0 0 0 0 0 0 0 33 0 0 0 0 0 0 0 0 0 36 0 0 0 36 0 0 0 0 0 0 0 0 0 0 0 0 0 0 0 0 0 0 0 0 0 
		8 0 0 0 0 0 0 0 0 0 0 34 0 35 0 0 0 21 0 0 0 0 0 0 0 0 0 0 0 0 0 0 0 0 0 0 0 0 0 0 0 31 0 0 0 0 
		9 25 0 0 25 0 0 0 33 0 0 0 0 0 0 0 0 0 0 0 0 24 21 0 0 0 29 21 0 0 27 0 0 39 0 0 0 0 27 0 0 0 0 23 0 0 
		10 22 0 0 0 0 0 0 0 34 0 0 0 0 0 0 0 37 0 0 0 0 0 0 0 0 27 0 0 0 0 0 0 0 0 0 0 27 0 0 0 0 0 0 0 0 
		11 0 0 34 0 0 0 0 0 0 0 0 0 0 0 0 0 0 0 0 0 0 0 0 20 0 0 0 0 0 0 0 0 0 0 34 0 28 0 0 0 35 0 0 0 0 
		12 0 0 0 0 0 0 0 0 35 0 0 0 0 0 0 0 0 0 35 0 0 0 29 0 0 0 0 0 0 0 0 0 0 0 31 0 0 0 0 0 0 0 0 0 0 
		13 0 0 0 39 0 0 0 0 0 0 0 0 0 0 0 0 0 0 0 0 0 0 0 0 0 0 29 0 0 0 26 0 0 0 0 0 0 0 0 24 0 0 0 0 0 
		14 0 0 0 0 0 26 0 0 0 0 0 0 0 0 0 0 0 28 0 0 0 0 0 37 0 0 0 0 0 0 34 0 0 0 0 0 0 0 33 0 0 0 0 0 0 
		15 0 0 0 30 0 0 0 0 0 0 0 0 0 0 0 0 0 22 0 0 0 0 37 0 0 0 0 0 0 0 0 0 0 0 35 0 25 0 0 0 0 20 0 0 39 
		16 30 0 0 0 0 0 0 0 21 0 37 0 0 0 0 0 0 0 0 0 0 0 0 0 0 0 0 0 0 39 0 0 0 0 0 0 0 0 0 0 0 34 0 0 0 
		17 0 40 0 0 0 0 0 0 0 0 0 0 0 0 28 22 0 0 0 40 0 25 0 0 31 0 0 0 0 38 0 28 0 0 0 0 0 0 0 0 0 0 23 0 38 
		18 0 25 0 0 0 0 0 0 0 0 0 0 35 0 0 0 0 0 0 0 29 0 0 0 0 0 0 36 0 0 0 0 0 0 0 0 0 0 0 0 0 0 0 0 0 
		19 32 0 0 0 0 0 22 36 0 0 0 0 0 0 0 0 0 40 0 0 0 33 0 0 0 0 0 0 0 0 0 0 23 0 0 33 0 0 0 0 0 0 0 33 0 
		20 0 0 34 0 0 0 0 0 0 24 0 0 0 0 0 0 0 0 29 0 0 22 0 0 0 24 0 0 32 0 0 0 0 0 0 37 0 0 0 0 31 0 0 0 0 
		21 23 32 0 0 0 0 20 0 0 21 0 0 0 0 0 0 0 25 0 33 22 0 0 0 0 0 0 0 27 24 0 24 0 0 0 0 0 0 0 0 0 40 0 0 34 
		22 0 0 0 0 0 0 0 0 0 0 0 0 29 0 0 37 0 0 0 0 0 0 0 0 0 0 0 0 0 0 0 0 0 0 0 0 0 0 0 0 0 0 0 0 0 
		23 0 0 0 0 0 0 0 36 0 0 0 20 0 0 37 0 0 0 0 0 0 0 0 0 0 0 0 0 0 39 0 0 0 0 0 0 0 0 0 0 22 0 0 0 0 
		24 0 0 0 30 0 0 0 0 0 0 0 0 0 0 0 0 0 31 0 0 0 0 0 0 0 0 0 0 0 0 0 33 0 0 0 39 23 0 0 0 22 31 0 0 0 
		25 0 0 0 20 0 0 0 0 0 29 27 0 0 0 0 0 0 0 0 0 24 0 0 0 0 0 0 0 0 0 0 0 0 0 0 0 0 0 0 0 0 0 0 0 0 
		26 0 0 0 0 32 0 0 0 0 21 0 0 0 29 0 0 0 0 0 0 0 0 0 0 0 0 0 0 0 0 0 0 29 0 0 0 21 0 22 0 0 0 0 0 36 
		27 0 0 0 0 0 0 0 0 0 0 0 0 0 0 0 0 0 0 36 0 0 0 0 0 0 0 0 0 0 0 0 0 0 0 0 0 0 0 0 30 0 0 0 0 0 
		28 0 0 0 0 0 0 0 0 0 0 0 0 0 0 0 0 0 0 0 0 32 27 0 0 0 0 0 0 0 0 0 0 0 0 20 0 0 0 0 0 0 0 0 40 0 
		29 0 0 34 0 0 0 0 0 0 27 0 0 0 0 0 0 39 38 0 0 0 24 0 39 0 0 0 0 0 0 0 0 0 0 0 0 0 32 0 0 25 0 0 0 0 
		30 0 0 0 23 0 0 0 0 0 0 0 0 0 26 34 0 0 0 0 0 0 0 0 0 0 0 0 0 0 0 0 0 0 0 0 0 37 0 0 40 0 0 0 0 0 
		31 0 0 0 0 0 0 0 0 0 0 0 0 0 0 0 0 0 28 0 0 0 24 0 0 33 0 0 0 0 0 0 0 0 0 0 0 0 0 0 0 0 0 0 0 0 
		32 20 0 0 0 0 0 0 0 0 39 0 0 0 0 0 0 0 0 0 23 0 0 0 0 0 0 29 0 0 0 0 0 0 0 0 33 0 0 40 0 32 0 0 0 0 
		33 0 0 0 0 0 0 0 0 0 0 0 0 0 0 0 0 0 0 0 0 0 0 0 0 0 0 0 0 0 0 0 0 0 0 0 0 24 0 0 0 0 0 0 0 34 
		34 0 25 0 0 0 0 0 0 0 0 0 34 31 0 0 35 0 0 0 0 0 0 0 0 0 0 0 0 20 0 0 0 0 0 0 0 0 0 0 0 0 0 0 0 0 
		35 0 0 0 0 0 0 0 0 0 0 0 0 0 0 0 0 0 0 0 33 37 0 0 0 39 0 0 0 0 0 0 0 33 0 0 0 32 0 0 0 0 0 28 33 0 
		36 0 0 0 0 0 0 0 0 0 0 27 28 0 0 0 25 0 0 0 0 0 0 0 0 23 0 21 0 0 0 37 0 0 24 0 32 0 0 0 0 0 0 38 0 0 
		37 0 0 0 0 0 0 0 0 0 27 0 0 0 0 0 0 0 0 0 0 0 0 0 0 0 0 0 0 0 32 0 0 0 0 0 0 0 0 0 0 0 0 0 0 0 
		38 0 0 0 0 0 0 0 0 0 0 0 0 0 0 33 0 0 0 0 0 0 0 0 0 0 0 22 0 0 0 0 0 40 0 0 0 0 0 0 0 0 0 0 0 0 
		39 0 0 0 0 0 32 0 0 0 0 0 0 0 24 0 0 0 0 0 0 0 0 0 0 0 0 0 30 0 0 40 0 0 0 0 0 0 0 0 0 0 0 0 0 0 
		40 0 0 0 0 36 0 0 0 31 0 0 35 0 0 0 0 0 0 0 0 31 0 0 22 22 0 0 0 0 25 0 0 32 0 0 0 0 0 0 0 0 0 0 0 27 
		41 0 0 29 0 0 0 0 0 0 0 0 0 0 0 0 20 34 0 0 0 0 40 0 0 31 0 0 0 0 0 0 0 0 0 0 0 0 0 0 0 0 0 0 0 0 
		42 0 0 0 33 0 0 0 0 0 23 0 0 0 0 0 0 0 23 0 0 0 0 0 0 0 0 0 0 0 0 0 0 0 0 0 28 38 0 0 0 0 0 0 0 0 
		43 0 0 25 0 0 0 24 0 0 0 0 0 0 0 0 0 0 0 0 33 0 0 0 0 0 0 0 0 40 0 0 0 0 0 0 33 0 0 0 0 0 0 0 0 0 
		44 0 21 0 0 0 0 0 0 0 0 0 0 0 0 0 39 0 38 0 0 0 34 0 0 0 0 36 0 0 0 0 0 0 34 0 0 0 0 0 0 27 0 0 0 0 
;
